40
543
10
89
80
85
45
61
66
80
28
89
83
0 1
0 3
0 4
0 5
0 7
0 9
0 11
0 13
0 16
0 17
0 18
0 19
0 20
0 21
0 23
0 24
0 25
0 26
0 27
0 28
0 29
0 30
0 32
0 33
0 34
0 35
0 36
0 37
0 39
1 3
1 4
1 6
1 7
1 8
1 9
1 10
1 11
1 13
1 15
1 16
1 17
1 18
1 19
1 20
1 22
1 23
1 24
1 25
1 27
1 28
1 29
1 30
1 32
1 34
1 35
1 37
1 38
1 39
2 3
2 4
2 5
2 6
2 7
2 8
2 9
2 10
2 12
2 13
2 14
2 15
2 16
2 18
2 19
2 20
2 22
2 23
2 24
2 25
2 26
2 27
2 28
2 29
2 31
2 34
2 35
2 36
2 37
2 38
2 39
3 4
3 6
3 9
3 10
3 11
3 15
3 16
3 17
3 18
3 21
3 23
3 26
3 27
3 28
3 29
3 31
3 32
3 33
3 34
3 35
3 36
3 37
4 5
4 7
4 10
4 11
4 12
4 13
4 14
4 15
4 17
4 19
4 21
4 22
4 23
4 24
4 27
4 28
4 30
4 31
4 32
4 33
4 34
4 36
4 39
5 6
5 7
5 8
5 10
5 12
5 14
5 15
5 17
5 18
5 19
5 20
5 21
5 22
5 27
5 30
5 31
5 33
5 35
5 36
5 39
6 8
6 9
6 10
6 11
6 12
6 13
6 15
6 16
6 19
6 20
6 22
6 23
6 25
6 26
6 27
6 28
6 29
6 30
6 33
6 35
6 36
6 37
7 10
7 11
7 12
7 13
7 16
7 17
7 18
7 20
7 21
7 24
7 25
7 26
7 28
7 29
7 30
7 31
7 32
7 33
7 35
7 36
7 37
7 39
8 10
8 12
8 13
8 15
8 16
8 17
8 18
8 21
8 22
8 23
8 24
8 25
8 26
8 28
8 29
8 30
8 31
8 32
8 33
8 34
8 35
8 37
8 38
8 39
9 11
9 13
9 14
9 15
9 17
9 18
9 19
9 20
9 21
9 22
9 26
9 27
9 30
9 32
9 34
9 36
9 38
10 11
10 13
10 14
10 15
10 16
10 18
10 19
10 20
10 21
10 22
10 24
10 25
10 26
10 28
10 29
10 30
10 31
10 32
10 34
10 35
10 36
10 37
10 38
11 12
11 14
11 17
11 19
11 21
11 22
11 24
11 25
11 28
11 30
11 31
11 33
11 35
11 37
12 13
12 14
12 15
12 16
12 17
12 18
12 22
12 24
12 26
12 27
12 28
12 29
12 31
12 32
12 33
12 34
12 35
12 36
12 38
12 39
13 14
13 16
13 17
13 18
13 19
13 20
13 21
13 24
13 25
13 27
13 29
13 30
13 31
13 32
13 33
13 36
13 37
13 38
13 39
14 15
14 16
14 17
14 18
14 19
14 20
14 21
14 22
14 23
14 24
14 27
14 28
14 31
14 32
14 33
14 37
15 16
15 17
15 18
15 19
15 20
15 21
15 22
15 23
15 24
15 25
15 26
15 27
15 28
15 29
15 30
15 32
15 34
15 35
15 37
15 38
15 39
16 18
16 19
16 20
16 21
16 22
16 23
16 24
16 25
16 26
16 27
16 29
16 32
16 33
16 36
16 38
16 39
17 19
17 21
17 22
17 23
17 24
17 25
17 26
17 27
17 28
17 29
17 30
17 31
17 32
17 33
17 34
17 35
17 36
17 38
17 39
18 19
18 20
18 21
18 23
18 25
18 28
18 29
18 30
18 32
18 34
18 35
18 36
18 37
18 39
19 20
19 21
19 22
19 23
19 24
19 25
19 27
19 29
19 32
19 35
19 36
19 37
19 39
20 21
20 22
20 25
20 26
20 27
20 28
20 30
20 31
20 32
20 33
20 34
20 35
20 36
20 37
20 39
21 22
21 23
21 24
21 25
21 26
21 27
21 29
21 30
21 32
21 34
21 36
22 23
22 24
22 25
22 26
22 31
22 32
22 33
22 34
22 35
22 36
22 37
22 39
23 25
23 27
23 28
23 29
23 30
23 31
23 32
23 33
23 34
23 35
23 36
23 37
23 39
24 25
24 27
24 29
24 30
24 31
24 33
24 34
24 35
24 36
24 37
24 38
25 26
25 27
25 28
25 29
25 30
25 33
25 34
25 35
25 37
25 39
26 28
26 30
26 31
26 32
26 37
26 39
27 29
27 31
27 34
27 35
27 36
27 37
27 38
27 39
28 29
28 33
28 34
28 37
28 38
29 30
29 31
29 32
29 34
29 35
29 36
29 38
29 39
30 31
30 36
30 37
30 38
30 39
31 32
31 34
31 35
31 36
31 37
31 38
31 39
32 33
32 34
32 36
32 39
33 35
33 37
33 39
34 35
34 36
34 37
34 39
35 36
35 37
35 38
35 39
36 39
37 38
37 39
30 0 11 18
2 10 9 21
7 4 19 31
1 5 6 34
37 25 39 28
15 13 35 16
38 17 22 26
27 23 33 3
8 24 12 29
36 20 32 14
